c A SAT instance generated from a 3-CNF formula that had 30 clauses and 15 variables
p cnf 15 30
6 -7 9 0
-4 15 -9 0
-5 10 -15 0
8 -5 1 0
-6 -11 -14 0
-11 1 7 0
-2 -9 -4 0
-15 -8 -5 0
-6 -12 -9 0
-5 7 -8 0
13 -9 11 0
-15 -12 -3 0
15 -6 1 0
-9 1 -12 0
-7 10 -15 0
-6 -5 -3 0
15 14 5 0
-12 1 -5 0
-5 -12 -15 0
-1 3 15 0
-9 -11 -15 0
-10 -15 -4 0
9 11 7 0
-3 -5 -1 0
10 -9 -8 0
-2 5 -12 0
8 14 15 0
11 7 8 0
13 6 -5 0
14 -3 -12 0
%
0

33 15 67 45 78 30 30 71 100 61 94 61 49 1 60
